116 21 35 127 81 179 162 107 
104 119 192 146 2 67 105 74 
155 152 115 77 167 34 188 108 
103 65 47 43 145 195 52 15 149 
134 38 58 132 121 17 53 39 56 
120 19 75 68 168 100 64 42 123 
93 170 22 186 4 72 158 63 
113 161 156 163 172 87 92 
62 171 86 25 200 139 49 
66 133 176 46 33 1 187 142 
5 144 18 91 130 136 189 
131 45 166 84 128 7 181 
148 147 124 141 24 14 138 99 183 
20 101 31 112 169 9 137 109 
178 88 54 194 37 165 95 
73 50 40 36 16 157 59 198 
118 60 173 154 89 29 110 111 
177 80 184 71 96 28 
3 55 135 8 76 90 117 
41 12 193 191 126 174 
57 190 175 185 151 140 
48 30 83 97 79 
82 102 11 6 106 
114 23 182 196 70 
164 85 160 13 122 51 
32 78 153 199 98 
180 10 143 69 
27 26 150 61 
159 44 129 125 
197 94 

